
Gurobi 10.0.2 (win64) logging started Fri Jun 21 03:41:01 2024

Set parameter LogFile to value "log/log_difficulty1_MNL_DESKTOP-S7OVCUR_9_33.txt"
Gurobi Optimizer version 10.0.2 build v10.0.2rc0 (win64)

CPU model: Intel(R) Core(TM) i7-10510U CPU @ 1.80GHz, instruction set [SSE2|AVX|AVX2]
Thread count: 4 physical cores, 8 logical processors, using up to 8 threads

Optimize a model with 2020 rows, 676 columns and 4612 nonzeros
Model fingerprint: 0x6769dbe8
Variable types: 364 continuous, 312 integer (312 binary)
Coefficient statistics:
  Matrix range     [2e-03, 4e+02]
  Objective range  [1e+02, 6e+02]
  Bounds range     [1e+00, 1e+00]
  RHS range        [1e+00, 1e+00]
Found heuristic solution: objective -0.0000000
Presolve removed 224 rows and 104 columns
Presolve time: 0.03s
Presolved: 1796 rows, 572 columns, 4231 nonzeros
Found heuristic solution: objective 2183.5631334
Variable types: 308 continuous, 264 integer (264 binary)

Root relaxation: objective 1.560743e+04, 428 iterations, 0.00 seconds (0.00 work units)

    Nodes    |    Current Node    |     Objective Bounds      |     Work
 Expl Unexpl |  Obj  Depth IntInf | Incumbent    BestBd   Gap | It/Node Time

     0     0 15607.4259    0  156 2183.56313 15607.4259   615%     -    0s
H    0     0                    8336.4067971 15607.4259  87.2%     -    0s
H    0     0                    13680.654993 15607.4259  14.1%     -    0s
     0     0 14901.2134    0  184 13680.6550 14901.2134  8.92%     -    0s
     0     0 14899.2224    0  192 13680.6550 14899.2224  8.91%     -    0s
     0     0 14898.9540    0  193 13680.6550 14898.9540  8.91%     -    0s
     0     0 14898.8970    0  193 13680.6550 14898.8970  8.90%     -    0s
     0     0 14605.3628    0  197 13680.6550 14605.3628  6.76%     -    0s
H    0     0                    13857.703603 14568.4095  5.13%     -    0s
     0     0 14568.4095    0  189 13857.7036 14568.4095  5.13%     -    0s
     0     0 14564.7061    0  191 13857.7036 14564.7061  5.10%     -    0s
     0     0 14564.7059    0  194 13857.7036 14564.7059  5.10%     -    0s
H    0     0                    14343.229917 14564.7059  1.54%     -    0s
H    0     0                    14394.592026 14564.7059  1.18%     -    0s
     0     0 14492.5358    0  164 14394.5920 14492.5358  0.68%     -    0s
     0     0 14470.6364    0  146 14394.5920 14470.6364  0.53%     -    0s
     0     0 14466.1278    0  164 14394.5920 14466.1278  0.50%     -    0s
     0     0 14464.1275    0  159 14394.5920 14464.1275  0.48%     -    0s
     0     0 14462.7021    0  181 14394.5920 14462.7021  0.47%     -    0s

Cutting planes:
  Gomory: 21
  Implied bound: 22
  MIR: 65
  Flow cover: 105
  RLT: 63
  Relax-and-lift: 3
  BQP: 13

Explored 1 nodes (1859 simplex iterations) in 0.45 seconds (0.15 work units)
Thread count was 8 (of 8 available processors)

Solution count 7: 14394.6 14343.2 13857.7 ... -0

Optimal solution found (tolerance 1.00e-04)
Best objective 1.439459202616e+04, best bound 1.439594227131e+04, gap 0.0094%
